(declare-fun i29.i.i_4_121 () (_ BitVec 64))
(declare-fun dst_reg_4_92 () (_ BitVec 64))
(declare-fun cmp21.i.i_4_120 () (_ BitVec 1))
(declare-fun i28.i.i_4_118 () (_ BitVec 64))
(declare-fun dst_reg_4_93 () (_ BitVec 64))
(declare-fun cmp205.i_4_29 () (_ BitVec 1))
(declare-fun cmp213.i_4_42 () (_ BitVec 1))
(declare-fun tobool.not.i.i_4_26 () (_ BitVec 1))
(declare-fun cmp.i246.i_4_107 () (_ BitVec 1))
(declare-fun cmp1.i248.i_4_110 () (_ BitVec 1))
(declare-fun src_reg1.sroa.21.0.copyload_4_22 () (_ BitVec 64))
(declare-fun i64.i_4_68 () (_ BitVec 64))
(declare-fun shl228.i_4_69 () (_ BitVec 64))
(declare-fun dst_reg_4_3 () (_ BitVec 64))
(declare-fun i27.i.i_4_115 () (_ BitVec 64))
(declare-fun cond17.i.i_4_117 () (_ BitVec 64))
(declare-fun i26.i.i_4_114 () (_ BitVec 64))
(declare-fun cmp12.i.i_4_116 () (_ BitVec 1))
(declare-fun dst_reg_4_91 () (_ BitVec 64))
(declare-fun i25.i.i_4_111 () (_ BitVec 64))
(declare-fun cond.i250.i_4_113 () (_ BitVec 64))
(declare-fun i.i245.i_4_105 () (_ BitVec 64))
(declare-fun cmp4.i.i_4_112 () (_ BitVec 1))
(declare-fun i24.i.i_4_108 () (_ BitVec 64))
(declare-fun cond36.i.i_4_123 () (_ BitVec 64))
(declare-fun cmp31.i.i_4_122 () (_ BitVec 1))
(declare-fun dst_reg_4_94 () (_ BitVec 32))
(declare-fun dst_reg_4_56 () (_ BitVec 32))
(declare-fun cond46.i204.i_4_84 () (_ BitVec 64))
(declare-fun cond31.i199.i_4_81 () (_ BitVec 64))
(declare-fun or10.i193.i_4_78 () (_ BitVec 64))
(declare-fun dst_reg_4_90 () (_ BitVec 64))
(declare-fun or.i187.i_4_75 () (_ BitVec 64))
(declare-fun dst_reg_4_89 () (_ BitVec 64))
(declare-fun storemerge7.i_4_72 () (_ BitVec 64))
(declare-fun dst_reg_4_88 () (_ BitVec 64))
(declare-fun storemerge9.i_4_70 () (_ BitVec 64))
(declare-fun dst_reg_4_87 () (_ BitVec 32))
(declare-fun dst_reg_4_49 () (_ BitVec 32))
(declare-fun dst_reg_4_86 () (_ BitVec 32))
(declare-fun dst_reg_4_48 () (_ BitVec 32))
(declare-fun dst_reg_4_85 () (_ BitVec 32))
(declare-fun dst_reg_4_47 () (_ BitVec 32))
(declare-fun src_reg_4_104 () (_ BitVec 32))
(declare-fun src_reg_4_66 () (_ BitVec 32))
(declare-fun src_reg_4_103 () (_ BitVec 64))
(declare-fun src_reg_4_65 () (_ BitVec 64))
(declare-fun src_reg_4_102 () (_ BitVec 64))
(declare-fun src_reg_4_64 () (_ BitVec 64))
(declare-fun src_reg_4_101 () (_ BitVec 64))
(declare-fun src_reg_4_63 () (_ BitVec 64))
(declare-fun src_reg_4_100 () (_ BitVec 64))
(declare-fun src_reg_4_62 () (_ BitVec 64))
(declare-fun src_reg_4_99 () (_ BitVec 64))
(declare-fun src_reg_4_61 () (_ BitVec 64))
(declare-fun src_reg_4_98 () (_ BitVec 64))
(declare-fun src_reg_4_60 () (_ BitVec 64))
(declare-fun src_reg_4_97 () (_ BitVec 32))
(declare-fun src_reg_4_59 () (_ BitVec 32))
(declare-fun src_reg_4_96 () (_ BitVec 32))
(declare-fun src_reg_4_58 () (_ BitVec 32))
(declare-fun src_reg_4_95 () (_ BitVec 32))
(declare-fun src_reg_4_57 () (_ BitVec 32))
(declare-fun dst_reg_4_9 () (_ BitVec 32))
(declare-fun dst_reg_4_2 () (_ BitVec 32))
(declare-fun dst_reg_4_1 () (_ BitVec 32))
(declare-fun src_reg_4_19 () (_ BitVec 32))
(declare-fun src_reg_4_18 () (_ BitVec 64))
(declare-fun src_reg_4_17 () (_ BitVec 64))
(declare-fun src_reg_4_16 () (_ BitVec 64))
(declare-fun src_reg_4_15 () (_ BitVec 64))
(declare-fun src_reg_4_14 () (_ BitVec 64))
(declare-fun src_reg_4_13 () (_ BitVec 64))
(declare-fun src_reg_4_12 () (_ BitVec 32))
(declare-fun src_reg_4_11 () (_ BitVec 32))
(declare-fun src_reg1.sroa.24.0.copyload_4_23 () (_ BitVec 64))
(declare-fun i20.i_4_27 () (_ BitVec 64))
(declare-fun dst_reg_4_4 () (_ BitVec 64))
(declare-fun src_reg1.sroa.11.0.copyload_4_24 () (_ BitVec 64))
(declare-fun src_reg_4_10 () (_ BitVec 32))
(declare-fun dst_reg_4_8 () (_ BitVec 64))
(declare-fun dst_reg_4_7 () (_ BitVec 64))
(declare-fun dst_reg_4_6 () (_ BitVec 64))
(declare-fun dst_reg_4_5 () (_ BitVec 64))
(declare-fun dst_reg_4_0 () (_ BitVec 32))
(declare-fun storemerge.i_4_67 () (_ BitVec 64))
(declare-fun shl222.i_4_46 () (_ BitVec 64))
(declare-fun dst_reg_4_55 () (_ BitVec 64))
(declare-fun dst_reg_4_54 () (_ BitVec 64))
(declare-fun shl220.i_4_45 () (_ BitVec 64))
(declare-fun dst_reg_4_53 () (_ BitVec 64))
(declare-fun dst_reg_4_52 () (_ BitVec 64))
(declare-fun dst_reg_4_51 () (_ BitVec 64))
(declare-fun dst_reg_4_50 () (_ BitVec 64))
(declare-fun shl.i_4_41 () (_ BitVec 64))
(declare-fun i62.i_4_39 () (_ BitVec 64))
(declare-fun .pn8.i_4_71 () (_ BitVec 64))
(declare-fun or37.i202.i_4_82 () (_ BitVec 64))
(declare-fun cmp41.i203.i_4_83 () (_ BitVec 1))
(declare-fun i18.i197.i_4_79 () (_ BitVec 64))
(declare-fun cmp26.i198.i_4_80 () (_ BitVec 1))
(declare-fun and9.i192.i_4_77 () (_ BitVec 64))
(declare-fun and.i186.i_4_74 () (_ BitVec 64))
(declare-fun cond53.i.i_4_127 () (_ BitVec 64))
(declare-fun cmp48.i.i_4_126 () (_ BitVec 1))
(declare-fun cmp40.i.i_4_125 () (_ BitVec 1))
(declare-fun dst_reg_4_137 () (_ BitVec 32))
(declare-fun dst_reg_4_136 () (_ BitVec 64))
(declare-fun dst_reg_4_135 () (_ BitVec 64))
(declare-fun dst_reg_4_134 () (_ BitVec 64))
(declare-fun dst_reg_4_133 () (_ BitVec 64))
(declare-fun dst_reg_4_132 () (_ BitVec 64))
(declare-fun dst_reg_4_131 () (_ BitVec 64))
(declare-fun dst_reg_4_130 () (_ BitVec 32))
(declare-fun dst_reg_4_129 () (_ BitVec 32))
(declare-fun dst_reg_4_128 () (_ BitVec 32))
(declare-fun src_reg_4_147 () (_ BitVec 32))
(declare-fun src_reg_4_146 () (_ BitVec 64))
(declare-fun src_reg_4_145 () (_ BitVec 64))
(declare-fun src_reg_4_144 () (_ BitVec 64))
(declare-fun src_reg_4_143 () (_ BitVec 64))
(declare-fun src_reg_4_142 () (_ BitVec 64))
(declare-fun src_reg_4_141 () (_ BitVec 64))
(declare-fun src_reg_4_140 () (_ BitVec 32))
(declare-fun src_reg_4_139 () (_ BitVec 32))
(declare-fun src_reg_4_138 () (_ BitVec 32))
(declare-fun cmp.i.i.i.i_4_152 () (_ BitVec 1))
(declare-fun xor.i.i.i_4_150 () (_ BitVec 64))
(declare-fun i.i253.i_4_148 () (_ BitVec 64))
(declare-fun i5.i255.i_4_149 () (_ BitVec 64))
(declare-fun i63.i_4_44 () (_ BitVec 64))
(declare-fun conv.i.i.i.i_4_196 () (_ BitVec 32))
(declare-fun phi.bo_4_198 () (_ BitVec 32))
(declare-fun i.i.i.i.i.i.neg_4_195 () (_ BitVec 32))
(declare-fun num.4.i.i.i.i.i_4_192 () (_ BitVec 32))
(declare-fun word.addr.4.lobit.i.i.i.i.i.neg_4_194 () (_ BitVec 64))
(declare-fun word.addr.4.i.i.i.i.i_4_191 () (_ BitVec 64))
(declare-fun num.3.i.i.i.i.i_4_184 () (_ BitVec 32))
(declare-fun sub22.i.i.i.i.i_4_188 () (_ BitVec 32))
(declare-fun tobool20.not.i.i.i.i.i_4_186 () (_ BitVec 1))
(declare-fun word.addr.3.i.i.i.i.i_4_183 () (_ BitVec 64))
(declare-fun shl23.i.i.i.i.i_4_190 () (_ BitVec 64))
(declare-fun num.2.i.i.i.i.i_4_176 () (_ BitVec 32))
(declare-fun sub16.i.i.i.i.i_4_180 () (_ BitVec 32))
(declare-fun tobool14.not.i.i.i.i.i_4_178 () (_ BitVec 1))
(declare-fun word.addr.2.i.i.i.i.i_4_175 () (_ BitVec 64))
(declare-fun shl17.i.i.i.i.i_4_182 () (_ BitVec 64))
(declare-fun num.1.i.i.i.i.i_4_168 () (_ BitVec 32))
(declare-fun sub10.i.i.i.i.i_4_172 () (_ BitVec 32))
(declare-fun tobool8.not.i.i.i.i.i_4_170 () (_ BitVec 1))
(declare-fun word.addr.1.i.i.i.i.i_4_167 () (_ BitVec 64))
(declare-fun shl11.i.i.i.i.i_4_174 () (_ BitVec 64))
(declare-fun spec.select17.i.i.i.i.i_4_160 () (_ BitVec 32))
(declare-fun sub4.i.i.i.i.i_4_164 () (_ BitVec 32))
(declare-fun tobool2.not.i.i.i.i.i_4_162 () (_ BitVec 1))
(declare-fun spec.select.i.i.i.i.i_4_157 () (_ BitVec 64))
(declare-fun shl5.i.i.i.i.i_4_166 () (_ BitVec 64))
(declare-fun tobool.not.i.i.i.i.i_4_154 () (_ BitVec 1))
(declare-fun shl.i.i.i.i.i_4_156 () (_ BitVec 64))
(declare-fun src_reg_4_242 () (_ BitVec 32))
(declare-fun src_reg_4_241 () (_ BitVec 64))
(declare-fun src_reg_4_240 () (_ BitVec 64))
(declare-fun src_reg_4_239 () (_ BitVec 64))
(declare-fun src_reg_4_238 () (_ BitVec 64))
(declare-fun src_reg_4_237 () (_ BitVec 64))
(declare-fun src_reg_4_236 () (_ BitVec 64))
(declare-fun src_reg_4_235 () (_ BitVec 32))
(declare-fun src_reg_4_234 () (_ BitVec 32))
(declare-fun src_reg_4_233 () (_ BitVec 32))
(declare-fun dst_reg_4_232 () (_ BitVec 32))
(declare-fun dst_reg_4_231 () (_ BitVec 64))
(declare-fun dst_reg_4_230 () (_ BitVec 64))
(declare-fun dst_reg_4_229 () (_ BitVec 64))
(declare-fun dst_reg_4_228 () (_ BitVec 64))
(declare-fun dst_reg_4_227 () (_ BitVec 64))
(declare-fun and.i1.i260.i_4_215 () (_ BitVec 64))
(declare-fun dst_reg_4_226 () (_ BitVec 64))
(declare-fun and4.i.i.i_4_218 () (_ BitVec 64))
(declare-fun dst_reg_4_225 () (_ BitVec 32))
(declare-fun dst_reg_4_224 () (_ BitVec 32))
(declare-fun dst_reg_4_223 () (_ BitVec 32))
(declare-fun retval.0.i.i.i.i_4_199 () (_ BitVec 32))
(declare-fun neg.i.i.i_4_217 () (_ BitVec 64))
(declare-fun or.i.i259.i_4_214 () (_ BitVec 64))
(declare-fun i11.i.i_4_213 () (_ BitVec 64))
(declare-fun retval.sroa.3.0.i.i.i_4_211 () (_ BitVec 64))
(declare-fun i9.i.i_4_212 () (_ BitVec 64))
(declare-fun retval.sroa.0.0.i.i.i_4_209 () (_ BitVec 64))
(declare-fun sub.i.i.i_4_206 () (_ BitVec 64))
(declare-fun cmp.i.i.i_4_201 () (_ BitVec 1))
(declare-fun and.i.i256.i_4_207 () (_ BitVec 64))
(declare-fun notmask.i.i.i_4_204 () (_ BitVec 64))
(declare-fun sh_prom.i.i.i_4_202 () (_ BitVec 64))
(assert (let ((a!1 (or (and (= cmp213.i_4_42 #b0) (= cmp205.i_4_29 #b0))
               (and (= cmp213.i_4_42 #b1) (= cmp205.i_4_29 #b0))))
      (a!11 (=> (and (= cmp213.i_4_42 #b0) (= cmp205.i_4_29 #b0))
                (and (= dst_reg_4_7 i63.i_4_44)
                     (= shl220.i_4_45
                        (bvshl i63.i_4_44 src_reg1.sroa.21.0.copyload_4_22))
                     (= shl222.i_4_46
                        (bvshl i62.i_4_39 src_reg1.sroa.24.0.copyload_4_23)))))
      (a!17 (=> (= cmp205.i_4_29 #b0)
                (and (= dst_reg_4_8 i62.i_4_39)
                     (= shl.i_4_41
                        (bvlshr #x8000000000000000
                                src_reg1.sroa.24.0.copyload_4_23))
                     (ite (bvugt i62.i_4_39 shl.i_4_41)
                          (= cmp213.i_4_42 #b1)
                          (= cmp213.i_4_42 #b0)))))
      (a!18 (and (=> (and (= cmp213.i_4_42 #b1) (= cmp205.i_4_29 #b0))
                     (and (= #x00000001 src_reg_4_57)
                          (= src_reg_4_11 src_reg_4_58)
                          (= src_reg_4_12 src_reg_4_59)
                          (= src_reg_4_13 src_reg_4_60)
                          (= src_reg_4_14 src_reg_4_61)
                          (= src_reg_4_15 src_reg_4_62)
                          (= src_reg_4_16 src_reg_4_63)
                          (= src_reg_4_17 src_reg_4_64)
                          (= src_reg_4_18 src_reg_4_65)
                          (= src_reg_4_19 src_reg_4_66)
                          (= #x00000001 dst_reg_4_47)
                          (= dst_reg_4_1 dst_reg_4_48)
                          (= dst_reg_4_2 dst_reg_4_49)
                          (= dst_reg_4_3 dst_reg_4_50)
                          (= dst_reg_4_4 dst_reg_4_51)
                          (= #x8000000000000000 dst_reg_4_52)
                          (= #x7fffffffffffffff dst_reg_4_53)
                          (= #x0000000000000000 dst_reg_4_54)
                          (= dst_reg_4_8 dst_reg_4_55)
                          (= dst_reg_4_9 dst_reg_4_56)))
                 (=> (and (= cmp213.i_4_42 #b0) (= cmp205.i_4_29 #b0))
                     (and (= #x00000001 src_reg_4_57)
                          (= src_reg_4_11 src_reg_4_58)
                          (= src_reg_4_12 src_reg_4_59)
                          (= src_reg_4_13 src_reg_4_60)
                          (= src_reg_4_14 src_reg_4_61)
                          (= src_reg_4_15 src_reg_4_62)
                          (= src_reg_4_16 src_reg_4_63)
                          (= src_reg_4_17 src_reg_4_64)
                          (= src_reg_4_18 src_reg_4_65)
                          (= src_reg_4_19 src_reg_4_66)
                          (= #x00000001 dst_reg_4_47)
                          (= dst_reg_4_1 dst_reg_4_48)
                          (= dst_reg_4_2 dst_reg_4_49)
                          (= dst_reg_4_3 dst_reg_4_50)
                          (= dst_reg_4_4 dst_reg_4_51)
                          (= #x8000000000000000 dst_reg_4_52)
                          (= #x7fffffffffffffff dst_reg_4_53)
                          (= shl220.i_4_45 dst_reg_4_54)
                          (= dst_reg_4_8 dst_reg_4_55)
                          (= dst_reg_4_9 dst_reg_4_56)))
                 (=> (and (= cmp213.i_4_42 #b0) (= cmp205.i_4_29 #b0))
                     (= storemerge.i_4_67 shl222.i_4_46))
                 (=> (and (= cmp213.i_4_42 #b1) (= cmp205.i_4_29 #b0))
                     (= storemerge.i_4_67 #xffffffffffffffff)))))
(let ((a!2 (or (and (= tobool.not.i.i_4_26 #b1) a!1)
               (and (= tobool.not.i.i_4_26 #b0) a!1)))
      (a!16 (and (= storemerge7.i_4_72
                    (bvshl .pn8.i_4_71 src_reg1.sroa.21.0.copyload_4_22))
                 (= and.i186.i_4_74
                    (bvand storemerge7.i_4_72 #x8000000000000000))
                 (= or.i187.i_4_75 (bvor and.i186.i_4_74 storemerge9.i_4_70))
                 (= and9.i192.i_4_77
                    (bvand storemerge7.i_4_72 #x7fffffffffffffff))
                 (= or10.i193.i_4_78 (bvor and9.i192.i_4_77 storemerge9.i_4_70))
                 (= dst_reg_4_54 i18.i197.i_4_79)
                 (ite (bvugt i18.i197.i_4_79 storemerge9.i_4_70)
                      (= cmp26.i198.i_4_80 #b1)
                      (= cmp26.i198.i_4_80 #b0))
                 (ite (= cmp26.i198.i_4_80 #b1)
                      (= cond31.i199.i_4_81 i18.i197.i_4_79)
                      (= cond31.i199.i_4_81 storemerge9.i_4_70))
                 (= or37.i202.i_4_82
                    (bvor storemerge7.i_4_72 storemerge9.i_4_70))
                 (ite (bvult storemerge.i_4_67 or37.i202.i_4_82)
                      (= cmp41.i203.i_4_83 #b1)
                      (= cmp41.i203.i_4_83 #b0))
                 (ite (= cmp41.i203.i_4_83 #b1)
                      (= cond46.i204.i_4_84 storemerge.i_4_67)
                      (= cond46.i204.i_4_84 or37.i202.i_4_82))
                 (=> (and (= tobool.not.i.i_4_26 #b1) a!1)
                     (= storemerge9.i_4_70 shl228.i_4_69))
                 (=> (and (= tobool.not.i.i_4_26 #b0) a!1)
                     (= storemerge9.i_4_70 #x0000000000000000))
                 (=> (and (= tobool.not.i.i_4_26 #b1) a!1)
                     (= .pn8.i_4_71 i20.i_4_27))
                 (=> (and (= tobool.not.i.i_4_26 #b0) a!1)
                     (= .pn8.i_4_71 #xffffffffffffffff))))
      (a!23 (=> (and (= tobool.not.i.i_4_26 #b1) a!1)
                (and (= dst_reg_4_3 i64.i_4_68)
                     (= shl228.i_4_69
                        (bvshl i64.i_4_68 src_reg1.sroa.21.0.copyload_4_22))))))
(let ((a!3 (and (= cmp1.i248.i_4_110 #b0)
                (and (= cmp.i246.i_4_107 #b0) (or a!2 (= cmp205.i_4_29 #b1)))))
      (a!4 (and (= cmp1.i248.i_4_110 #b1)
                (and (= cmp.i246.i_4_107 #b0) (or a!2 (= cmp205.i_4_29 #b1)))))
      (a!19 (and (= dst_reg_4_90 i.i245.i_4_105)
                 (ite (bvsgt i.i245.i_4_105 #xffffffffffffffff)
                      (= cmp.i246.i_4_107 #b1)
                      (= cmp.i246.i_4_107 #b0))
                 (=> (= cmp205.i_4_29 #b1)
                     (and (= #x00000001 src_reg_4_95)
                          (= src_reg_4_11 src_reg_4_96)
                          (= src_reg_4_12 src_reg_4_97)
                          (= src_reg_4_13 src_reg_4_98)
                          (= src_reg_4_14 src_reg_4_99)
                          (= src_reg_4_15 src_reg_4_100)
                          (= src_reg_4_16 src_reg_4_101)
                          (= src_reg_4_17 src_reg_4_102)
                          (= src_reg_4_18 src_reg_4_103)
                          (= src_reg_4_19 src_reg_4_104)
                          (= #x00000001 dst_reg_4_85)
                          (= dst_reg_4_1 dst_reg_4_86)
                          (= dst_reg_4_2 dst_reg_4_87)
                          (= #x0000000000000000 dst_reg_4_88)
                          (= #xffffffffffffffff dst_reg_4_89)
                          (= #x8000000000000000 dst_reg_4_90)
                          (= #x7fffffffffffffff dst_reg_4_91)
                          (= #x0000000000000000 dst_reg_4_92)
                          (= #xffffffffffffffff dst_reg_4_93)
                          (= dst_reg_4_9 dst_reg_4_94)))
                 (=> a!2
                     (and (= src_reg_4_57 src_reg_4_95)
                          (= src_reg_4_58 src_reg_4_96)
                          (= src_reg_4_59 src_reg_4_97)
                          (= src_reg_4_60 src_reg_4_98)
                          (= src_reg_4_61 src_reg_4_99)
                          (= src_reg_4_62 src_reg_4_100)
                          (= src_reg_4_63 src_reg_4_101)
                          (= src_reg_4_64 src_reg_4_102)
                          (= src_reg_4_65 src_reg_4_103)
                          (= src_reg_4_66 src_reg_4_104)
                          (= dst_reg_4_47 dst_reg_4_85)
                          (= dst_reg_4_48 dst_reg_4_86)
                          (= dst_reg_4_49 dst_reg_4_87)
                          (= storemerge9.i_4_70 dst_reg_4_88)
                          (= storemerge7.i_4_72 dst_reg_4_89)
                          (= or.i187.i_4_75 dst_reg_4_90)
                          (= or10.i193.i_4_78 dst_reg_4_91)
                          (= cond31.i199.i_4_81 dst_reg_4_92)
                          (= cond46.i204.i_4_84 dst_reg_4_93)
                          (= dst_reg_4_56 dst_reg_4_94)))))
      (a!21 (=> (and (= cmp.i246.i_4_107 #b0) (or a!2 (= cmp205.i_4_29 #b1)))
                (and (= dst_reg_4_91 i24.i.i_4_108)
                     (ite (bvslt i24.i.i_4_108 #x0000000000000000)
                          (= cmp1.i248.i_4_110 #b1)
                          (= cmp1.i248.i_4_110 #b0))))))
(let ((a!5 (or a!4
               (and (= cmp.i246.i_4_107 #b1) (or a!2 (= cmp205.i_4_29 #b1)))))
      (a!10 (=> (and (= cmp21.i.i_4_120 #b0) a!3)
                (and (ite (bvslt i29.i.i_4_121 #x0000000000000000)
                          (= cmp40.i.i_4_125 #b1)
                          (= cmp40.i.i_4_125 #b0)))))
      (a!12 (=> (and (= cmp40.i.i_4_125 #b0) (and (= cmp21.i.i_4_120 #b0) a!3))
                (and (= src_reg_4_95 src_reg_4_138)
                     (= src_reg_4_96 src_reg_4_139)
                     (= src_reg_4_97 src_reg_4_140)
                     (= src_reg_4_98 src_reg_4_141)
                     (= src_reg_4_99 src_reg_4_142)
                     (= src_reg_4_100 src_reg_4_143)
                     (= src_reg_4_101 src_reg_4_144)
                     (= src_reg_4_102 src_reg_4_145)
                     (= src_reg_4_103 src_reg_4_146)
                     (= src_reg_4_104 src_reg_4_147)
                     (= dst_reg_4_85 dst_reg_4_128)
                     (= dst_reg_4_86 dst_reg_4_129)
                     (= dst_reg_4_87 dst_reg_4_130)
                     (= dst_reg_4_88 dst_reg_4_131)
                     (= dst_reg_4_89 dst_reg_4_132)
                     (= dst_reg_4_90 dst_reg_4_133)
                     (= dst_reg_4_91 dst_reg_4_134)
                     (= dst_reg_4_92 dst_reg_4_135)
                     (= dst_reg_4_93 dst_reg_4_136)
                     (= dst_reg_4_94 dst_reg_4_137))))
      (a!13 (=> (and (= cmp40.i.i_4_125 #b1) (and (= cmp21.i.i_4_120 #b0) a!3))
                (and (= src_reg_4_95 src_reg_4_138)
                     (= src_reg_4_96 src_reg_4_139)
                     (= src_reg_4_97 src_reg_4_140)
                     (= src_reg_4_98 src_reg_4_141)
                     (= src_reg_4_99 src_reg_4_142)
                     (= src_reg_4_100 src_reg_4_143)
                     (= src_reg_4_101 src_reg_4_144)
                     (= src_reg_4_102 src_reg_4_145)
                     (= src_reg_4_103 src_reg_4_146)
                     (= src_reg_4_104 src_reg_4_147)
                     (= dst_reg_4_85 dst_reg_4_128)
                     (= dst_reg_4_86 dst_reg_4_129)
                     (= dst_reg_4_87 dst_reg_4_130)
                     (= dst_reg_4_88 dst_reg_4_131)
                     (= dst_reg_4_89 dst_reg_4_132)
                     (= cond53.i.i_4_127 dst_reg_4_133)
                     (= i28.i.i_4_118 dst_reg_4_134)
                     (= cond53.i.i_4_127 dst_reg_4_135)
                     (= dst_reg_4_93 dst_reg_4_136)
                     (= dst_reg_4_94 dst_reg_4_137))))
      (a!15 (=> (and (= cmp40.i.i_4_125 #b1) (and (= cmp21.i.i_4_120 #b0) a!3))
                (and (ite (bvugt i.i245.i_4_105 i29.i.i_4_121)
                          (= cmp48.i.i_4_126 #b1)
                          (= cmp48.i.i_4_126 #b0))
                     (ite (= cmp48.i.i_4_126 #b1)
                          (= cond53.i.i_4_127 i.i245.i_4_105)
                          (= cond53.i.i_4_127 i29.i.i_4_121)))))
      (a!20 (=> (and (= cmp21.i.i_4_120 #b1) a!3)
                (and (ite (bvult i24.i.i_4_108 i28.i.i_4_118)
                          (= cmp31.i.i_4_122 #b1)
                          (= cmp31.i.i_4_122 #b0))
                     (ite (= cmp31.i.i_4_122 #b1)
                          (= cond36.i.i_4_123 i24.i.i_4_108)
                          (= cond36.i.i_4_123 i28.i.i_4_118)))))
      (a!24 (=> a!3
                (and (= dst_reg_4_93 i28.i.i_4_118)
                     (ite (bvsgt i28.i.i_4_118 #xffffffffffffffff)
                          (= cmp21.i.i_4_120 #b1)
                          (= cmp21.i.i_4_120 #b0))
                     (= dst_reg_4_92 i29.i.i_4_121)))))
(let ((a!6 (or (and (= cmp40.i.i_4_125 #b1) (and (= cmp21.i.i_4_120 #b0) a!3))
               (and (= cmp40.i.i_4_125 #b0) (and (= cmp21.i.i_4_120 #b0) a!3))
               (and (= cmp21.i.i_4_120 #b1) a!3)
               a!5))
      (a!14 (and (= dst_reg_4_135 i.i253.i_4_148)
                 (= dst_reg_4_136 i5.i255.i_4_149)
                 (= xor.i.i.i_4_150 (bvxor i5.i255.i_4_149 i.i253.i_4_148))
                 (ite (= xor.i.i.i_4_150 #x0000000000000000)
                      (= cmp.i.i.i.i_4_152 #b1)
                      (= cmp.i.i.i.i_4_152 #b0))
                 (=> a!5
                     (and (= src_reg_4_95 src_reg_4_138)
                          (= src_reg_4_96 src_reg_4_139)
                          (= src_reg_4_97 src_reg_4_140)
                          (= src_reg_4_98 src_reg_4_141)
                          (= src_reg_4_99 src_reg_4_142)
                          (= src_reg_4_100 src_reg_4_143)
                          (= src_reg_4_101 src_reg_4_144)
                          (= src_reg_4_102 src_reg_4_145)
                          (= src_reg_4_103 src_reg_4_146)
                          (= src_reg_4_104 src_reg_4_147)
                          (= dst_reg_4_85 dst_reg_4_128)
                          (= dst_reg_4_86 dst_reg_4_129)
                          (= dst_reg_4_87 dst_reg_4_130)
                          (= dst_reg_4_88 dst_reg_4_131)
                          (= dst_reg_4_89 dst_reg_4_132)
                          (= cond.i250.i_4_113 dst_reg_4_133)
                          (= cond17.i.i_4_117 dst_reg_4_134)
                          (= cond.i250.i_4_113 dst_reg_4_135)
                          (= cond17.i.i_4_117 dst_reg_4_136)
                          (= dst_reg_4_94 dst_reg_4_137)))
                 (=> (and (= cmp21.i.i_4_120 #b1) a!3)
                     (and (= src_reg_4_95 src_reg_4_138)
                          (= src_reg_4_96 src_reg_4_139)
                          (= src_reg_4_97 src_reg_4_140)
                          (= src_reg_4_98 src_reg_4_141)
                          (= src_reg_4_99 src_reg_4_142)
                          (= src_reg_4_100 src_reg_4_143)
                          (= src_reg_4_101 src_reg_4_144)
                          (= src_reg_4_102 src_reg_4_145)
                          (= src_reg_4_103 src_reg_4_146)
                          (= src_reg_4_104 src_reg_4_147)
                          (= dst_reg_4_85 dst_reg_4_128)
                          (= dst_reg_4_86 dst_reg_4_129)
                          (= dst_reg_4_87 dst_reg_4_130)
                          (= dst_reg_4_88 dst_reg_4_131)
                          (= dst_reg_4_89 dst_reg_4_132)
                          (= i29.i.i_4_121 dst_reg_4_133)
                          (= cond36.i.i_4_123 dst_reg_4_134)
                          (= dst_reg_4_92 dst_reg_4_135)
                          (= cond36.i.i_4_123 dst_reg_4_136)
                          (= dst_reg_4_94 dst_reg_4_137)))
                 a!12
                 a!13))
      (a!22 (=> a!5
                (and (= dst_reg_4_92 i25.i.i_4_111)
                     (ite (bvugt i.i245.i_4_105 i25.i.i_4_111)
                          (= cmp4.i.i_4_112 #b1)
                          (= cmp4.i.i_4_112 #b0))
                     (ite (= cmp4.i.i_4_112 #b1)
                          (= cond.i250.i_4_113 i.i245.i_4_105)
                          (= cond.i250.i_4_113 i25.i.i_4_111))
                     (= dst_reg_4_91 i26.i.i_4_114)
                     (= dst_reg_4_93 i27.i.i_4_115)
                     (ite (bvult i26.i.i_4_114 i27.i.i_4_115)
                          (= cmp12.i.i_4_116 #b1)
                          (= cmp12.i.i_4_116 #b0))
                     (ite (= cmp12.i.i_4_116 #b1)
                          (= cond17.i.i_4_117 i26.i.i_4_114)
                          (= cond17.i.i_4_117 i27.i.i_4_115))))))
(let ((a!7 (and (ite (bvugt retval.0.i.i.i.i_4_199 #x0000003f)
                     (= cmp.i.i.i_4_201 #b1)
                     (= cmp.i.i.i_4_201 #b0))
                (= sh_prom.i.i.i_4_202
                   ((_ zero_extend 32) retval.0.i.i.i.i_4_199))
                (= notmask.i.i.i_4_204
                   (bvshl #xffffffffffffffff sh_prom.i.i.i_4_202))
                (= sub.i.i.i_4_206
                   (bvxor notmask.i.i.i_4_204 #xffffffffffffffff))
                (= and.i.i256.i_4_207
                   (bvand notmask.i.i.i_4_204 i.i253.i_4_148))
                (ite (= cmp.i.i.i_4_201 #b1)
                     (= retval.sroa.0.0.i.i.i_4_209 #x0000000000000000)
                     (= retval.sroa.0.0.i.i.i_4_209 and.i.i256.i_4_207))
                (ite (= cmp.i.i.i_4_201 #b1)
                     (= retval.sroa.3.0.i.i.i_4_211 #xffffffffffffffff)
                     (= retval.sroa.3.0.i.i.i_4_211 sub.i.i.i_4_206))
                (= dst_reg_4_88 i9.i.i_4_212)
                (= dst_reg_4_89 i11.i.i_4_213)
                (= or.i.i259.i_4_214
                   (bvor retval.sroa.0.0.i.i.i_4_209 i9.i.i_4_212))
                (= and.i1.i260.i_4_215
                   (bvand retval.sroa.3.0.i.i.i_4_211 i11.i.i_4_213))
                (= neg.i.i.i_4_217
                   (bvxor and.i1.i260.i_4_215 #xffffffffffffffff))
                (= and4.i.i.i_4_218 (bvand or.i.i259.i_4_214 neg.i.i.i_4_217))
                (=> (and (= cmp.i.i.i.i_4_152 #b0) a!6)
                    (= retval.0.i.i.i.i_4_199 phi.bo_4_198))
                (=> (and (= cmp.i.i.i.i_4_152 #b1) a!6)
                    (= retval.0.i.i.i.i_4_199 #x00000000))
                (= dst_reg_4_128 dst_reg_4_223)
                (= dst_reg_4_129 dst_reg_4_224)
                (= dst_reg_4_130 dst_reg_4_225)
                (= and4.i.i.i_4_218 dst_reg_4_226)
                (= and.i1.i260.i_4_215 dst_reg_4_227)
                (= dst_reg_4_133 dst_reg_4_228)
                (= dst_reg_4_134 dst_reg_4_229)
                (= dst_reg_4_135 dst_reg_4_230)
                (= dst_reg_4_136 dst_reg_4_231)
                (= dst_reg_4_137 dst_reg_4_232)
                (= src_reg_4_138 src_reg_4_233)
                (= src_reg_4_139 src_reg_4_234)
                (= src_reg_4_140 src_reg_4_235)
                (= src_reg_4_141 src_reg_4_236)
                (= src_reg_4_142 src_reg_4_237)
                (= src_reg_4_143 src_reg_4_238)
                (= src_reg_4_144 src_reg_4_239)
                (= src_reg_4_145 src_reg_4_240)
                (= src_reg_4_146 src_reg_4_241)
                (= src_reg_4_147 src_reg_4_242)))
      (a!9 (=> (and (= cmp.i.i.i.i_4_152 #b0) a!6)
               (and (ite (bvult xor.i.i.i_4_150 #x0000000100000000)
                         (= tobool.not.i.i.i.i.i_4_154 #b1)
                         (= tobool.not.i.i.i.i.i_4_154 #b0))
                    (= shl.i.i.i.i.i_4_156
                       (bvshl xor.i.i.i_4_150 #x0000000000000020))
                    (ite (= tobool.not.i.i.i.i.i_4_154 #b1)
                         (= spec.select.i.i.i.i.i_4_157 shl.i.i.i.i.i_4_156)
                         (= spec.select.i.i.i.i.i_4_157 xor.i.i.i_4_150))
                    (ite (= tobool.not.i.i.i.i.i_4_154 #b1)
                         (= spec.select17.i.i.i.i.i_4_160 #x0000001f)
                         (= spec.select17.i.i.i.i.i_4_160 #x0000003f))
                    (ite (bvult spec.select.i.i.i.i.i_4_157 #x0001000000000000)
                         (= tobool2.not.i.i.i.i.i_4_162 #b1)
                         (= tobool2.not.i.i.i.i.i_4_162 #b0))
                    (= sub4.i.i.i.i.i_4_164
                       (bvadd spec.select17.i.i.i.i.i_4_160 #xfffffff0))
                    (= shl5.i.i.i.i.i_4_166
                       (bvshl spec.select.i.i.i.i.i_4_157 #x0000000000000010))
                    (ite (= tobool2.not.i.i.i.i.i_4_162 #b1)
                         (= word.addr.1.i.i.i.i.i_4_167 shl5.i.i.i.i.i_4_166)
                         (= word.addr.1.i.i.i.i.i_4_167
                            spec.select.i.i.i.i.i_4_157))
                    (ite (= tobool2.not.i.i.i.i.i_4_162 #b1)
                         (= num.1.i.i.i.i.i_4_168 sub4.i.i.i.i.i_4_164)
                         (= num.1.i.i.i.i.i_4_168 spec.select17.i.i.i.i.i_4_160))
                    (ite (bvult word.addr.1.i.i.i.i.i_4_167 #x0100000000000000)
                         (= tobool8.not.i.i.i.i.i_4_170 #b1)
                         (= tobool8.not.i.i.i.i.i_4_170 #b0))
                    (= sub10.i.i.i.i.i_4_172
                       (bvadd num.1.i.i.i.i.i_4_168 #xfffffff8))
                    (= shl11.i.i.i.i.i_4_174
                       (bvshl word.addr.1.i.i.i.i.i_4_167 #x0000000000000008))
                    (ite (= tobool8.not.i.i.i.i.i_4_170 #b1)
                         (= word.addr.2.i.i.i.i.i_4_175 shl11.i.i.i.i.i_4_174)
                         (= word.addr.2.i.i.i.i.i_4_175
                            word.addr.1.i.i.i.i.i_4_167))
                    (ite (= tobool8.not.i.i.i.i.i_4_170 #b1)
                         (= num.2.i.i.i.i.i_4_176 sub10.i.i.i.i.i_4_172)
                         (= num.2.i.i.i.i.i_4_176 num.1.i.i.i.i.i_4_168))
                    (ite (bvult word.addr.2.i.i.i.i.i_4_175 #x1000000000000000)
                         (= tobool14.not.i.i.i.i.i_4_178 #b1)
                         (= tobool14.not.i.i.i.i.i_4_178 #b0))
                    (= sub16.i.i.i.i.i_4_180
                       (bvadd num.2.i.i.i.i.i_4_176 #xfffffffc))
                    (= shl17.i.i.i.i.i_4_182
                       (bvshl word.addr.2.i.i.i.i.i_4_175 #x0000000000000004))
                    (ite (= tobool14.not.i.i.i.i.i_4_178 #b1)
                         (= word.addr.3.i.i.i.i.i_4_183 shl17.i.i.i.i.i_4_182)
                         (= word.addr.3.i.i.i.i.i_4_183
                            word.addr.2.i.i.i.i.i_4_175))
                    (ite (= tobool14.not.i.i.i.i.i_4_178 #b1)
                         (= num.3.i.i.i.i.i_4_184 sub16.i.i.i.i.i_4_180)
                         (= num.3.i.i.i.i.i_4_184 num.2.i.i.i.i.i_4_176))
                    (ite (bvult word.addr.3.i.i.i.i.i_4_183 #x4000000000000000)
                         (= tobool20.not.i.i.i.i.i_4_186 #b1)
                         (= tobool20.not.i.i.i.i.i_4_186 #b0))
                    (= sub22.i.i.i.i.i_4_188
                       (bvadd num.3.i.i.i.i.i_4_184 #x000000fe))
                    (= shl23.i.i.i.i.i_4_190
                       (bvshl word.addr.3.i.i.i.i.i_4_183 #x0000000000000002))
                    (ite (= tobool20.not.i.i.i.i.i_4_186 #b1)
                         (= word.addr.4.i.i.i.i.i_4_191 shl23.i.i.i.i.i_4_190)
                         (= word.addr.4.i.i.i.i.i_4_191
                            word.addr.3.i.i.i.i.i_4_183))
                    (ite (= tobool20.not.i.i.i.i.i_4_186 #b1)
                         (= num.4.i.i.i.i.i_4_192 sub22.i.i.i.i.i_4_188)
                         (= num.4.i.i.i.i.i_4_192 num.3.i.i.i.i.i_4_184))
                    (= word.addr.4.lobit.i.i.i.i.i.neg_4_194
                       (bvlshr word.addr.4.i.i.i.i.i_4_191 #x000000000000003f))
                    (= i.i.i.i.i.i.neg_4_195
                       ((_ extract 31 0) word.addr.4.lobit.i.i.i.i.i.neg_4_194))
                    (= conv.i.i.i.i_4_196
                       (bvadd num.4.i.i.i.i.i_4_192 i.i.i.i.i.i.neg_4_195))
                    (= phi.bo_4_198 (bvand conv.i.i.i.i_4_196 #x000000ff))))))
(let ((a!8 (=> (or (and (= cmp.i.i.i.i_4_152 #b0) a!6)
                   (and (= cmp.i.i.i.i_4_152 #b1) a!6))
               a!7)))
  (and a!8
       a!9
       a!10
       a!11
       (=> a!6 a!14)
       a!15
       (=> a!2 a!16)
       a!17
       (=> a!1 a!18)
       (= dst_reg_4_0 dst_reg_4_0)
       (= dst_reg_4_1 dst_reg_4_1)
       (= dst_reg_4_2 dst_reg_4_2)
       (= dst_reg_4_3 dst_reg_4_3)
       (= dst_reg_4_4 dst_reg_4_4)
       (= dst_reg_4_5 dst_reg_4_5)
       (= dst_reg_4_6 dst_reg_4_6)
       (= dst_reg_4_7 dst_reg_4_7)
       (= dst_reg_4_8 dst_reg_4_8)
       (= dst_reg_4_9 dst_reg_4_9)
       (= src_reg_4_10 src_reg_4_10)
       (= src_reg_4_11 src_reg_4_11)
       (= src_reg_4_12 src_reg_4_12)
       (= src_reg_4_13 src_reg_4_13)
       (= src_reg_4_14 src_reg_4_14)
       (= src_reg_4_15 src_reg_4_15)
       (= src_reg_4_16 src_reg_4_16)
       (= src_reg_4_17 src_reg_4_17)
       (= src_reg_4_18 src_reg_4_18)
       (= src_reg_4_19 src_reg_4_19)
       (= src_reg_4_17 src_reg1.sroa.21.0.copyload_4_22)
       (= src_reg_4_18 src_reg1.sroa.24.0.copyload_4_23)
       (= src_reg_4_14 src_reg1.sroa.11.0.copyload_4_24)
       (ite (= src_reg1.sroa.11.0.copyload_4_24 #x0000000000000000)
            (= tobool.not.i.i_4_26 #b1)
            (= tobool.not.i.i_4_26 #b0))
       (= dst_reg_4_4 i20.i_4_27)
       (ite (bvugt src_reg1.sroa.24.0.copyload_4_23 #x000000000000003f)
            (= cmp205.i_4_29 #b1)
            (= cmp205.i_4_29 #b0))
       (=> (or a!2 (= cmp205.i_4_29 #b1)) a!19)
       a!20
       a!21
       a!22
       a!23
       a!24)))))))))

;{"dst_reg":["dst_reg_4_0",[""],"dst_reg_4_1","dst_reg_4_2",["dst_reg_4_3","dst_reg_4_4"],"dst_reg_4_5","dst_reg_4_6","dst_reg_4_7","dst_reg_4_8","dst_reg_4_9"],"src_reg":["src_reg_4_10",[""],"src_reg_4_11","src_reg_4_12",["src_reg_4_13","src_reg_4_14"],"src_reg_4_15","src_reg_4_16","src_reg_4_17","src_reg_4_18","src_reg_4_19"]}
;{"dst_reg":["dst_reg_4_223",[""],"dst_reg_4_224","dst_reg_4_225",["dst_reg_4_226","dst_reg_4_227"],"dst_reg_4_228","dst_reg_4_229","dst_reg_4_230","dst_reg_4_231","dst_reg_4_232"],"src_reg":["src_reg_4_233",[""],"src_reg_4_234","src_reg_4_235",["src_reg_4_236","src_reg_4_237"],"src_reg_4_238","src_reg_4_239","src_reg_4_240","src_reg_4_241","src_reg_4_242"]}
